ACTORES = {Actor0, Actor1, Actor2, Actor3, Actor4, Actor5, Actor6, Actor7, Actor8, Actor9};
Escenas =[|1,1,0,0,1,1,0,1,1,0,2
		  |0,1,1,1,1,0,0,1,1,1,18
		  |0,0,1,0,0,1,1,0,0,1,3
		  |1,1,1,1,0,0,0,1,0,1,3
		  |1,0,1,0,0,0,0,1,1,0,2
		  |0,1,1,1,1,0,1,0,0,0,6
		  |1,0,0,1,0,1,0,0,1,0,12
		  |0,1,1,0,1,0,1,0,1,0,13
		  |1,1,0,0,1,0,0,0,0,0,10
		  |1,0,0,0,1,0,0,0,1,0,17
		  |];
Duracion=[4, 4, 3, 5, 1, 1, 2, 2, 1, 1];